unknown
(model
; cardinality of BoundSet is 1
(declare-sort BoundSet 0)
; rep: @uc_BoundSet_0
; cardinality of UnboundSet is 1
(declare-sort UnboundSet 0)
(declare-fun groundTerm_2 () UnboundSet)
(define-fun IsSkateboarding ((BOUND_VARIABLE_415 BoundSet)) Bool true)
(define-fun IsSkateboarder ((BOUND_VARIABLE_415 BoundSet)) Bool false)
(define-fun IsWatching ((BOUND_VARIABLE_415 BoundSet)) Bool false)
)
sat
(model
; cardinality of BoundSet is 1
(declare-sort BoundSet 0)
; rep: @uc_BoundSet_0
; cardinality of UnboundSet is 1
(declare-sort UnboundSet 0)
(declare-fun groundTerm_8 () UnboundSet)
(define-fun IsSkateboarding ((BOUND_VARIABLE_466 BoundSet)) Bool true)
(define-fun IsSkateboarder ((BOUND_VARIABLE_466 BoundSet)) Bool true)
(define-fun IsWatching ((BOUND_VARIABLE_466 BoundSet)) Bool false)
)
